98 100
22 66 1
37 71 1
58 52 1
6 86 2
23 70 1
28 85 1
75 14 1
2 70 1
35 82 1
30 73 1
82 87 1
11 97 1
8 67 1
44 69 1
12 81 1
31 97 1
44 44 1
79 12 1
68 19 1
13 70 1
41 97 1
71 30 1
7 84 1
50 72 1
7 9 1
21 98 1
11 16 1
20 90 1
18 100 1
98 28 1
28 74 1
3 23 1
40 67 1
35 80 1
6 80 1
46 80 1
25 77 1
35 26 1
46 94 1
2 88 1
21 95 1
46 42 1
48 81 1
19 69 1
28 87 1
19 79 1
11 77 1
98 88 1
47 86 1
4 72 1
86 71 1
38 89 1
28 94 1
50 73 1
81 39 1
40 94 1
21 75 1
8 82 1
21 17 1
4 73 1
25 99 1
28 100 1
32 70 1
30 94 1
41 44 1
9 90 1
3 72 1
66 83 1
78 2 1
2 89 1
37 23 1
16 91 1
71 21 1
7 96 1
32 99 2
26 67 1
9 67 1
23 76 1
38 90 1
48 86 1
21 97 1
1 99 1
7 89 1
32 79 1
45 100 1
91 93 1
37 44 1
84 20 1
31 76 1
42 100 1
29 15 1
35 88 1
29 95 1
5 77 1
3 69 1
92 33 1
79 97 1
97 94 1
100 100 
100 100 
100 100 
100 100 
100 100 
100 100 
100 100 
100 100 
100 100 
100 100 
100 100 
100 100 
100 100 
100 100 
100 100 
100 100 
100 100 
100 100 
100 100 
100 100 
100 100 
100 100 
100 100 
100 100 
100 100 
100 100 
100 100 
100 100 
100 100 
100 100 
100 100 
100 100 
100 100 
100 100 
100 100 
100 100 
100 100 
100 100 
100 100 
100 100 
100 100 
100 100 
100 100 
100 100 
100 100 
100 100 
100 100 
100 100 
100 100 
100 100 
100 100 
100 100 
100 100 
100 100 
100 100 
100 100 
100 100 
100 100 
100 100 
100 100 
100 100 
100 100 
100 100 
100 100 
100 100 
100 100 
100 100 
100 100 
100 100 
100 100 
100 100 
100 100 
100 100 
100 100 
100 100 
100 100 
100 100 
100 100 
100 100 
100 100 
100 100 
100 100 
100 100 
100 100 
100 100 
100 100 
100 100 
100 100 
100 100 
100 100 
100 100 
100 100 
100 100 
100 100 
100 100 
100 100 
100 100 
100 100 
100 100 
100 100 
